[VALIDATOR STDOUT]
Checking plan: /home/jfan5/Safety-gen/runs/benchmark/optic/spanner_20260129_162401/spanner/optic_results/spanner-s5-n4-l7-s5001.plan
Plan executed successfully - checking goal
Plan valid
Final value: 16 

Successful plans:
Value: 16
 /home/jfan5/Safety-gen/runs/benchmark/optic/spanner_20260129_162401/spanner/optic_results/spanner-s5-n4-l7-s5001.plan 16
